
Log started (V12.10.0.0) Fri Apr 23 09:23:11 2021


Problem 'asset.lp' read.
Read time = 0.02 sec. (1.53 ticks)
New value for default parallel thread count: 1
New value for time limit in seconds: 150
Version identifier: 12.10.0.0 | 2019-11-26 | 843d4de
CPXPARAM_Threads                                 1
CPXPARAM_TimeLimit                               150
Found incumbent of value 0.000000 after 0.00 sec. (0.35 ticks)
Tried aggregator 3 times.
MIP Presolve eliminated 6282 rows and 419 columns.
MIP Presolve modified 9193 coefficients.
Aggregator did 4181 substitutions.
Reduced MIP has 4211 rows, 5221 columns, and 24384 nonzeros.
Reduced MIP has 4752 binaries, 383 generals, 0 SOSs, and 0 indicators.
Presolve time = 0.05 sec. (58.19 ticks)
Probing time = 0.01 sec. (4.09 ticks)
Cover probing fixed 29 vars, tightened 29 bounds.
Tried aggregator 1 time.
Detecting symmetries...
MIP Presolve eliminated 29 rows and 29 columns.
MIP Presolve modified 620 coefficients.
Reduced MIP has 4182 rows, 5192 columns, and 24210 nonzeros.
Reduced MIP has 4723 binaries, 383 generals, 0 SOSs, and 0 indicators.
Presolve time = 0.01 sec. (14.15 ticks)
Probing time = 0.01 sec. (3.85 ticks)
Clique table members: 14970.
MIP emphasis: balance optimality and feasibility.
MIP search method: dynamic search.
Parallel mode: none, using 1 thread.
Root relaxation solution time = 0.13 sec. (169.62 ticks)

        Nodes                                         Cuts/
   Node  Left     Objective  IInf  Best Integer    Best Bound    ItCnt     Gap

*     0+    0                            0.0000     1200.0000              --- 
      0     0     1200.0000   554        0.0000     1200.0000     1456     --- 
      0     0     1187.5000   554        0.0000    Cuts: 1145     7260     --- 
      0     0     1187.5000   554        0.0000    Cuts: 1145    11026     --- 
      0     0     1184.9183   554        0.0000     Cuts: 734    21308     --- 
*     0+    0                           60.0000     1184.9183              --- 
      0     0     1184.4104   554       60.0000    Cuts: 1145    26722     --- 
      0     0     1184.3309   554       60.0000    Cuts: 1145    29333     --- 
Detecting symmetries...
      0     0     1184.0984   554       60.0000    Cuts: 1145    32248     --- 
      0     0     1183.8039   554       60.0000    Cuts: 1145    35743     --- 
      0     0     1183.7961   554       60.0000    Cuts: 1145    39835     --- 
*     0+    0                          130.0000     1183.7961           810.61%
*     0+    0                          260.0000     1183.7961           355.31%
*     0+    0                          320.0000     1183.7961           269.94%
*     0+    0                          325.0000     1183.7961           264.24%
      0     0        cutoff            325.0000     1183.7961    39835  264.24%
Detecting symmetries...
      0     2     1183.7961   610      325.0000     1183.7884    39835  264.24%
Elapsed time = 13.48 sec. (20643.48 ticks, tree = 0.01 MB, solutions = 5)
      1     3     1180.7810   659      325.0000     1182.0949    45292  263.72%
      2     4     1177.5000   624      325.0000     1180.7368    48162  263.30%
      3     5     1172.4172   709      325.0000     1180.7368    54749  263.30%
      4     6     1162.4700   613      325.0000     1177.5000    58403  262.31%
      5     7     1171.9983   674      325.0000     1177.5000    60329  262.31%
      9    11     1146.5762   638      325.0000     1177.5000    61878  262.31%
     10    12     1169.4983   670      325.0000     1177.5000    61898  262.31%
     12    14     1167.2947   655      325.0000     1177.5000    63609  262.31%
     15    17     1164.9172   660      325.0000     1177.5000    66095  262.31%
     25    27     1166.7547   651      325.0000     1177.5000    70719  262.31%
Elapsed time = 18.42 sec. (28043.57 ticks, tree = 0.14 MB, solutions = 5)
     40    42     1164.6805   626      325.0000     1177.5000    74849  262.31%
     51    53     1154.7156   639      325.0000     1177.5000    80899  262.31%
     60    60     1124.7235   570      325.0000     1177.5000    85199  262.31%
     66    66     1103.6452   564      325.0000     1177.5000    91075  262.31%
     68    68     1019.4296   436      325.0000     1177.5000    96638  262.31%
     77    77      990.7023   406      325.0000     1177.5000   100743  262.31%
     84    84      939.3649   324      325.0000     1177.5000   104934  262.31%
    105   105      819.3398   214      325.0000     1177.5000   110756  262.31%
    139   135      793.9409   192      325.0000     1177.5000   117781  262.31%
    181   171      714.5633   152      325.0000     1177.5000   124979  262.31%
Elapsed time = 26.04 sec. (39004.20 ticks, tree = 1.26 MB, solutions = 5)
    294   253      579.4777    29      325.0000     1177.5000   133867  262.31%
    318   273     1176.4286   687      325.0000     1177.5000   137613  262.31%
    322   277     1176.1740   684      325.0000     1177.5000   141761  262.31%
    324   279     1176.1570   689      325.0000     1177.5000   145483  262.31%
    331   286     1125.9558   590      325.0000     1177.5000   152444  262.31%
    340   295     1110.9738   541      325.0000     1177.5000   157157  262.31%
    343   298     1049.0875   478      325.0000     1177.5000   162892  262.31%
    347   302     1027.4493   424      325.0000     1177.5000   166894  262.31%
    364   319     1014.3681   418      325.0000     1177.5000   173485  262.31%
    377   332      981.2488   378      325.0000     1177.5000   179265  262.31%
Elapsed time = 34.18 sec. (51047.84 ticks, tree = 2.64 MB, solutions = 5)
    400   353      901.8579   291      325.0000     1177.5000   187824  262.31%
    436   385      743.1235   113      325.0000     1177.5000   192631  262.31%
    466   397     1177.5000   734      325.0000     1177.5000   200923  262.31%
    467   398     1177.3344   758      325.0000     1177.5000   209715  262.31%
    480   411     1177.3344   729      325.0000     1177.5000   210772  262.31%

Performing restart 1

Repeating presolve.
Tried aggregator 2 times.
MIP Presolve eliminated 97 rows and 97 columns.
MIP Presolve modified 4994 coefficients.
Aggregator did 13 substitutions.
Reduced MIP has 4072 rows, 5082 columns, and 19486 nonzeros.
Reduced MIP has 4624 binaries, 372 generals, 0 SOSs, and 0 indicators.
Presolve time = 0.02 sec. (20.90 ticks)
Tried aggregator 1 time.
MIP Presolve modified 818 coefficients.
Reduced MIP has 4072 rows, 5082 columns, and 19486 nonzeros.
Reduced MIP has 4624 binaries, 372 generals, 0 SOSs, and 0 indicators.
Presolve time = 0.01 sec. (13.49 ticks)
Represolve time = 0.15 sec. (104.50 ticks)
    493     0     1169.1311   832      325.0000     Cuts: 990   255728  259.73%
    493     0     1162.5655   832      325.0000     Cuts: 749   261984  257.71%
    493     0     1156.5134   832      325.0000     Cuts: 520   265038  255.85%
*   493+    0                          350.0000     1156.5134           230.43%
*   493+    0                          370.0000     1156.5134           212.57%
*   493+    0                          380.0000     1156.5134           204.35%
    493     0        cutoff            380.0000     1156.5134   265038  204.35%
    493     0     1148.1630   832      380.0000     Cuts: 554   267988  202.15%
    493     0     1142.8314   832      380.0000     Cuts: 554   270858  200.75%
    493     0     1138.4769   832      380.0000     Cuts: 537   273687  199.60%
    493     0     1134.1795   832      380.0000     Cuts: 473   276826  198.47%
    493     0     1131.2450   832      380.0000     Cuts: 499   280562  197.70%
    493     0     1128.7143   832      380.0000     Cuts: 524   283682  197.03%
*   493+    0                          405.0000     1128.7143           178.69%
    493     0     1121.9890   832      405.0000     Cuts: 506   287572  177.03%
    493     0     1118.2235   832      405.0000     Cuts: 492   290970  176.10%
    493     0     1115.1161   832      405.0000     Cuts: 339   293930  175.34%
*   493+    0                          415.0000     1115.1161           168.70%
    493     0     1113.6094   832      415.0000     Cuts: 403   296479  168.34%
    493     0     1111.7231   832      415.0000     Cuts: 385   299202  167.89%
    493     0     1109.9803   832      415.0000     Cuts: 324   302808  167.47%
*   493+    0                          420.0000     1109.9803           164.28%
*   493+    0                          445.0000     1109.9803           149.43%
    493     0        cutoff            445.0000     1109.9803   302808  149.43%
    493     0     1108.7093   832      445.0000     Cuts: 410   306081  149.15%
    493     0     1107.3138   832      445.0000     Cuts: 408   308459  148.83%
    493     0     1106.0372   832      445.0000     Cuts: 436   311382  148.55%
    493     0     1105.6012   832      445.0000     Cuts: 359   313483  148.45%
    493     0     1105.0618   832      445.0000     Cuts: 437   315858  148.33%
    493     0     1103.6836   832      445.0000     Cuts: 319   318266  148.02%
*   493+    0                          450.0000     1103.6836           145.26%
*   493+    0                          465.0000     1103.6836           137.35%
    493     0        cutoff            465.0000     1103.6836   318266  137.35%
    493     0     1101.8922   832      465.0000     Cuts: 315   321674  136.97%
    493     0     1099.5178   832      465.0000     Cuts: 442   325163  136.46%
    493     0     1098.1449   832      465.0000     Cuts: 362   327164  136.16%
*   493+    0                          470.0000     1098.1449           133.65%
*   493+    0                          485.0000     1098.1449           126.42%
*   493+    0                          495.0000     1098.1449           121.85%
    493     0        cutoff            495.0000     1098.1449   327164  121.85%
    493     0     1097.4779   832      495.0000     Cuts: 363   328887  121.71%
    493     0     1096.5779   832      495.0000     Cuts: 284   330923  121.53%
    493     0     1095.8643   832      495.0000     Cuts: 290   332770  121.39%
    493     0     1094.8686   832      495.0000     Cuts: 366   335426  121.19%
    493     0     1093.5320   832      495.0000     Cuts: 426   339630  120.92%
    493     0     1091.5184   832      495.0000     Cuts: 529   343938  120.51%
    493     0     1090.6888   832      495.0000     Cuts: 416   345937  120.34%
    493     0     1090.0521   832      495.0000     Cuts: 366   347995  120.21%
    493     0     1089.0218   832      495.0000     Cuts: 374   353184  120.00%
*   493+    0                          500.0000     1089.0218           117.80%
    493     0     1087.8911   832      500.0000     Cuts: 427   355390  117.58%
    493     0     1087.5706   832      500.0000     Cuts: 364   357550  117.51%
    493     0     1086.7357   832      500.0000     Cuts: 343   360218  117.35%
*   493+    0                          505.0000     1086.7357           115.20%
*   493+    0                          510.0000     1086.7357           113.09%
    493     0     1086.2688   832      510.0000     Cuts: 423   362624  112.99%
    493     0     1085.8743   832      510.0000     Cuts: 285   364967  112.92%
    493     0     1085.4132   832      510.0000     Cuts: 368   366701  112.83%
    493     0     1085.0761   832      510.0000     Cuts: 463   369366  112.76%
    493     0     1084.8436   832      510.0000     Cuts: 411   372827  112.71%
    493     0     1084.4362   832      510.0000     Cuts: 345   375210  112.63%
    493     0     1083.9897   832      510.0000     Cuts: 385   379031  112.55%
    493     0     1083.6936   832      510.0000     Cuts: 372   382822  112.49%
    493     0     1083.4030   832      510.0000     Cuts: 227   385504  112.43%
    493     0     1083.1363   832      510.0000     Cuts: 377   391237  112.38%
    493     0     1082.7782   832      510.0000     Cuts: 267   394195  112.31%
    493     0     1082.4734   832      510.0000     Cuts: 514   397586  112.25%
Starting limited solution polishing.
*   493+    0                          520.0000     1082.4734           108.17%
*   493+    0                          535.0000     1082.4734           102.33%
*   493+    0                          540.0000     1082.4734           100.46%
Advanced basis not built.
    493     0        cutoff            540.0000     1082.4734   397586  100.46%
    493     0        cutoff            540.0000     1082.4734   397586  100.46%

GUB cover cuts applied:  56
Clique cuts applied:  236
Cover cuts applied:  6
Implied bound cuts applied:  68
Flow cuts applied:  8
Mixed integer rounding cuts applied:  73
Zero-half cuts applied:  206
Lift and project cuts applied:  5
Gomory fractional cuts applied:  5

Root node processing (before b&c):
  Real time             =   13.44 sec. (20611.36 ticks)
Sequential b&c:
  Real time             =  136.57 sec. (189627.65 ticks)
                          ------------
Total (root+branch&cut) =  150.01 sec. (210239.01 ticks)

Solution pool: 24 solutions saved.

MIP - Time limit exceeded, integer feasible:  Objective =  5.4000000000e+02
Current MIP best bound =  1.0824734278e+03 (gap = 542.473, 100.46%)
Solution time =  150.01 sec.  Iterations = 397586  Nodes = 493
Deterministic time = 210239.04 ticks  (1401.54 ticks/sec)


Incumbent solution
Variable Name           Solution Value
F                           540.000000
y7                            1.000000
y163                          1.000000
y159                          1.000000
y88                           1.000000
y205                          1.000000
y172                          1.000000
y204                          1.000000
y262                          1.000000
y228                          1.000000
y52                           1.000000
y237                          1.000000
y90                           1.000000
y11                           1.000000
y236                          1.000000
y118                          1.000000
y23                           1.000000
y154                          1.000000
y17                           1.000000
y122                          1.000000
y230                          1.000000
y63                           1.000000
y126                          1.000000
y153                          1.000000
y184                          1.000000
y2                            1.000000
y131                          1.000000
y164                          1.000000
y211                          1.000000
y198                          1.000000
y14                           1.000000
y225                          1.000000
y246                          1.000000
y253                          1.000000
y123                          1.000000
y119                          1.000000
y35                           1.000000
x38x236x1                     2.000000
x208x163x1                    1.000000
x208x228x1                    1.000000
x115x172x1                    1.000000
x189x159x1                    2.000000
x75x205x1                     1.000000
x167x163x1                    1.000000
x167x14x1                     1.000000
x87x228x1                     1.000000
x192x88x1                     1.000000
x175x7x2                      1.000000
x270x204x2                    2.000000
x158x211x2                    2.000000
x257x205x2                    1.000000
x257x11x2                     1.000000
x98x90x2                      2.000000
x267x11x2                     1.000000
x247x126x2                    1.000000
x247x2x2                      1.000000
x175x7x3                      1.000000
x115x52x3                     1.000000
x75x172x3                     1.000000
x85x153x3                     2.000000
x87x262x3                     1.000000
x192x88x3                     1.000000
x41x230x3                     2.000000
x267x14x3                     1.000000
x206x23x3                     1.000000
x206x126x3                    1.000000
x7x2x2                        1.000000
x7x262x3                      1.000000
x163x23x1                     1.000000
x163x35x1                     1.000000
x159x52x1                     1.000000
x159x198x1                    1.000000
x88x17x1                      1.000000
x88x164x3                     1.000000
x205x119x1                    1.000000
x205x17x2                     1.000000
x172x154x1                    1.000000
x172x118x3                    1.000000
x204x237x2                    2.000000
x262x63x3                     1.000000
x262x198x3                    1.000000
x228x154x1                    1.000000
x228x131x1                    1.000000
x52x246x1                     1.000000
x52x225x3                     1.000000
x237x0x2                      2.000000
x90x63x2                      1.000000
x90x184x2                     1.000000
x11x122x2                     2.000000
x236x118x1                    1.000000
x236x225x1                    1.000000
x118x0x1                      1.000000
x118x0x3                      1.000000
x23x123x1                     1.000000
x23x0x3                       1.000000
x154x0x1                      2.000000
x17x0x1                       1.000000
x17x0x2                       1.000000
x122x0x2                      2.000000
x230x0x3                      1.000000
x230x131x3                    1.000000
x63x0x2                       1.000000
x63x0x3                       1.000000
x126x35x2                     1.000000
x126x184x3                    1.000000
x153x0x3                      1.000000
x153x119x3                    1.000000
x184x0x2                      1.000000
x184x0x3                      1.000000
x2x164x2                      1.000000
x2x253x2                      1.000000
x131x0x1                      1.000000
x131x0x3                      1.000000
x164x0x2                      1.000000
x164x0x3                      1.000000
x211x0x2                      1.000000
x211x123x2                    1.000000
x198x0x1                      1.000000
x198x0x3                      1.000000
x14x246x1                     1.000000
x14x253x3                     1.000000
x225x0x1                      1.000000
x225x0x3                      1.000000
x246x0x1                      2.000000
x253x0x2                      1.000000
x253x0x3                      1.000000
x123x0x1                      1.000000
x123x0x2                      1.000000
x119x0x1                      1.000000
x119x0x3                      1.000000
x35x0x1                       1.000000
x35x0x2                       1.000000
s38                           5.707158
s76                           7.258973
s245                          7.244481
s141                          6.400000
s145                          6.420000
s252                          6.430000
s88                           7.509789
s207                          7.620000
s205                          7.028258
s67                           6.700000
s97                           6.740000
s139                          7.790000
s178                          6.810000
s172                          7.212669
s61                           6.990000
s242                          8.000000
s233                          7.010000
s243                          8.010000
s25                           7.040000
s79                           8.050000
s228                          7.080000
s258                          8.120000
s95                           7.150000
s80                           8.180000
s194                          7.200000
s221                          8.340000
s52                           7.823376
s186                          7.500000
s216                          8.640000
s266                          8.640000
s236                          7.782513
z38z236z1                     1.000000
s118                          8.810000
s23                           8.110907
s154                          8.910000
z38z154z1                     1.000000
s17                           8.930000
s47                           9.030000
s131                          9.180000
s198                          9.270000
s14                           8.292513
s225                          9.310000
s246                          9.320000
z38z246z1                     1.000000
s227                          9.330000
z38z227z1                     1.000000
s123                          9.360000
s119                          9.380000
s35                           9.440000
s208                          5.261663
s55                           5.990000
s163                          6.679166
z208z163z1                    1.000000
s159                          6.604693
z208z67z1                     1.000000
z208z228z1                    1.000000
z208z266z1                    1.000000
z208z236z1                    1.000000
z208z154z1                    1.000000
z208z246z1                    1.000000
z208z227z1                    1.000000
s175                          4.866940
s65                           5.350000
s165                          5.410000
s7                            6.507768
z175z7z2                      1.000000
z175z7z3                      1.000000
s157                          6.020000
s161                          6.020000
s19                           7.136576
s121                          6.260000
s21                           7.221300
s33                           6.490000
z175z33z3                     1.000000
s71                           6.570000
s24                           7.610000
z175z24z3                     1.000000
s28                           7.690000
z175z28z2                     1.000000
s177                          6.730000
s72                           7.780000
z175z72z2                     1.000000
s204                          7.226551
z175z204z2                    1.000000
s36                           7.910000
s83                           7.950000
z175z83z2                     1.000000
s262                          7.761189
z175z262z3                    1.000000
s5                            6.960000
s46                           6.970000
z175z46z2                     1.000000
s265                          7.050000
z175z265z3                    1.000000
s140                          7.060000
z175z140z3                    1.000000
s231                          7.100000
z175z231z3                    1.000000
s84                           8.140000
s69                           7.270000
z175z69z2                     1.000000
s125                          7.310000
s180                          7.420000
z175z180z3                    1.000000
s183                          8.420000
z175z183z3                    1.000000
s237                          8.420000
z175z237z2                    1.000000
s143                          7.440000
s110                          7.540000
s90                           7.813061
z175z90z2                     1.000000
s54                           7.640000
z175z54z2                     1.000000
s182                          7.640000
s93                           7.710000
s11                           7.794002
z175z11z2                     1.000000
s58                           7.850000
z175z58z2                     1.000000
s155                          7.980000
s122                          9.010000
z175z122z2                    1.000000
s230                          8.010000
z175z230z3                    1.000000
s63                           9.020000
s126                          8.100000
s153                          8.293333
z175z153z3                    1.000000
s184                          9.140000
s59                           9.150000
s124                          9.170000
s2                            8.180000
z175z2z2                      1.000000
s29                           8.200000
s164                          9.250000
s211                          8.320000
z175z211z2                    1.000000
s253                          9.340000
s220                          9.360000
z175z220z3                    1.000000
s224                          9.430000
z175z224z3                    1.000000
s270                          4.987360
z270z72z2                     1.000000
z270z204z2                    1.000000
z270z83z2                     1.000000
z270z46z2                     1.000000
z270z69z2                     1.000000
z270z237z2                    1.000000
z270z90z2                     1.000000
z270z54z2                     1.000000
z270z11z2                     1.000000
z270z58z2                     1.000000
z270z122z2                    1.000000
z270z2z2                      1.000000
z270z211z2                    1.000000
s115                          5.079080
z115z172z1                    1.000000
z115z140z3                    1.000000
z115z52z3                     1.000000
z115z180z3                    1.000000
z115z266z1                    1.000000
z115z236z1                    1.000000
z115z154z1                    1.000000
z115z230z3                    1.000000
z115z153z3                    1.000000
z115z246z1                    1.000000
z115z227z1                    1.000000
z115z220z3                    1.000000
z115z224z3                    1.000000
s189                          4.965460
z189z163z1                    1.000000
z189z159z1                    1.000000
z189z67z1                     1.000000
z189z228z1                    1.000000
z189z266z1                    1.000000
z189z236z1                    1.000000
z189z154z1                    1.000000
z189z246z1                    1.000000
z189z227z1                    1.000000
s158                          5.197950
z158z46z2                     1.000000
z158z69z2                     1.000000
z158z237z2                    1.000000
z158z90z2                     1.000000
z158z54z2                     1.000000
z158z11z2                     1.000000
z158z58z2                     1.000000
z158z122z2                    1.000000
z158z2z2                      1.000000
z158z211z2                    1.000000
s75                           5.144520
z75z205z1                     1.000000
z75z172z3                     1.000000
z75z262z3                     1.000000
z75z265z3                     1.000000
z75z140z3                     1.000000
z75z228z1                     1.000000
z75z231z3                     1.000000
z75z180z3                     1.000000
z75z183z3                     1.000000
z75z266z1                     1.000000
z75z236z1                     1.000000
z75z154z1                     1.000000
z75z230z3                     1.000000
z75z153z3                     1.000000
z75z246z1                     1.000000
z75z227z1                     1.000000
z75z220z3                     1.000000
z75z224z3                     1.000000
s167                          5.116230
z167z163z1                    1.000000
z167z228z1                    1.000000
z167z266z1                    1.000000
z167z236z1                    1.000000
z167z154z1                    1.000000
z167z14z1                     1.000000
z167z246z1                    1.000000
z167z227z1                    1.000000
s85                           5.422860
z85z180z3                     1.000000
z85z230z3                     1.000000
z85z153z3                     1.000000
z85z220z3                     1.000000
z85z224z3                     1.000000
s87                           5.053730
z87z67z1                      1.000000
z87z262z3                     1.000000
z87z265z3                     1.000000
z87z140z3                     1.000000
z87z228z1                     1.000000
z87z231z3                     1.000000
z87z180z3                     1.000000
z87z183z3                     1.000000
z87z266z1                     1.000000
z87z236z1                     1.000000
z87z154z1                     1.000000
z87z230z3                     1.000000
z87z153z3                     1.000000
z87z246z1                     1.000000
z87z227z1                     1.000000
z87z220z3                     1.000000
z87z224z3                     1.000000
s192                          5.545050
z192z88z1                     1.000000
z192z88z3                     1.000000
z192z180z3                    1.000000
z192z266z1                    1.000000
z192z236z1                    1.000000
z192z154z1                    1.000000
z192z230z3                    1.000000
z192z153z3                    1.000000
z192z246z1                    1.000000
z192z227z1                    1.000000
z192z220z3                    1.000000
z192z224z3                    1.000000
s257                          5.589230
z257z205z2                    1.000000
z257z237z2                    1.000000
z257z90z2                     1.000000
z257z54z2                     1.000000
z257z11z2                     1.000000
z257z58z2                     1.000000
z257z122z2                    1.000000
z257z2z2                      1.000000
z257z211z2                    1.000000
s41                           5.674230
z41z180z3                     1.000000
z41z183z3                     1.000000
z41z230z3                     1.000000
z41z153z3                     1.000000
z41z220z3                     1.000000
z41z224z3                     1.000000
s98                           5.508310
z98z90z2                      1.000000
z98z54z2                      1.000000
z98z11z2                      1.000000
z98z58z2                      1.000000
z98z122z2                     1.000000
z98z2z2                       1.000000
z98z211z2                     1.000000
s267                          5.628030
z267z90z2                     1.000000
z267z54z2                     1.000000
z267z11z2                     1.000000
z267z58z2                     1.000000
z267z122z2                    1.000000
z267z230z3                    1.000000
z267z153z3                    1.000000
z267z2z2                      1.000000
z267z211z2                    1.000000
z267z14z3                     1.000000
z267z220z3                    1.000000
z267z224z3                    1.000000
s206                          5.876640
z206z23z3                     1.000000
z206z126z3                    1.000000
z206z220z3                    1.000000
z206z224z3                    1.000000
s247                          5.670790
z247z90z2                     1.000000
z247z54z2                     1.000000
z247z58z2                     1.000000
z247z122z2                    1.000000
z247z126z2                    1.000000
z247z2z2                      1.000000
z247z211z2                    1.000000
s215                          5.300000
z65z2z2                       1.000000
z65z211z2                     1.000000
z65z246z1                     1.000000
z65z227z1                     1.000000
z165z246z1                    1.000000
z165z227z1                    1.000000
z165z220z3                    1.000000
z165z224z3                    1.000000
z7z262z3                      1.000000
z7z2z2                        1.000000
z7z220z3                      1.000000
z7z224z3                      1.000000
z55z246z1                     1.000000
z55z227z1                     1.000000
z55z220z3                     1.000000
z55z224z3                     1.000000
z163z23z1                     1.000000
z163z246z1                    1.000000
z163z227z1                    1.000000
z163z35z1                     1.000000
z19z220z3                     1.000000
z19z224z3                     1.000000
z121z220z3                    1.000000
z121z224z3                    1.000000
z21z220z3                     1.000000
z21z224z3                     1.000000
z76z246z1                     1.000000
z76z227z1                     1.000000
z76z220z3                     1.000000
z76z224z3                     1.000000
z245z246z1                    1.000000
z245z227z1                    1.000000
z141z246z1                    1.000000
z141z227z1                    1.000000
z159z52z1                     1.000000
z159z198z1                    1.000000
z159z246z1                    1.000000
z159z227z1                    1.000000
z145z246z1                    1.000000
z145z227z1                    1.000000
z252z246z1                    1.000000
z252z227z1                    1.000000
z252z220z3                    1.000000
z252z224z3                    1.000000
z33z220z3                     1.000000
z33z224z3                     1.000000
z71z220z3                     1.000000
z71z224z3                     1.000000
z88z17z1                      1.000000
z88z164z3                     1.000000
z88z246z1                     1.000000
z88z227z1                     1.000000
z88z220z3                     1.000000
z88z224z3                     1.000000
z24z220z3                     1.000000
z24z224z3                     1.000000
z207z246z1                    1.000000
z207z227z1                    1.000000
z205z17z2                     1.000000
z205z246z1                    1.000000
z205z227z1                    1.000000
z205z119z1                    1.000000
z67z227z1                     1.000000
z177z220z3                    1.000000
z177z224z3                    1.000000
z97z227z1                     1.000000
z97z220z3                     1.000000
z97z224z3                     1.000000
z139z246z1                    1.000000
z139z227z1                    1.000000
z178z227z1                    1.000000
z178z224z3                    1.000000
z172z118z3                    1.000000
z172z154z1                    1.000000
z172z227z1                    1.000000
z204z237z2                    1.000000
z262z63z3                     1.000000
z262z198z3                    1.000000
z262z224z3                    1.000000
z61z224z3                     1.000000
z242z227z1                    1.000000
z233z227z1                    1.000000
z243z246z1                    1.000000
z243z227z1                    1.000000
z25z224z3                     1.000000
z79z227z1                     1.000000
z265z224z3                    1.000000
z140z224z3                    1.000000
z228z154z1                    1.000000
z228z131z1                    1.000000
z231z224z3                    1.000000
z258z227z1                    1.000000
z84z224z3                     1.000000
z80z224z3                     1.000000
z52z225z3                     1.000000
z52z246z1                     1.000000
z90z63z2                      1.000000
z90z184z2                     1.000000
z11z122z2                     1.000000
z236z118z1                    1.000000
z236z225z1                    1.000000
z23z123z1                     1.000000
z230z131z3                    1.000000
z126z184z3                    1.000000
z126z35z2                     1.000000
z153z119z3                    1.000000
z2z164z2                      1.000000
z2z253z2                      1.000000
z211z123z2                    1.000000
z14z246z1                     1.000000
z14z253z3                     1.000000
All other variables in the range 1-9825 are 0.
